NAME : traveling-santa-2018-prime-paths.29114.tour
COMMENT : Length = 29114
COMMENT : Found by LKH [Keld Helsgaun] Sun Jun 12 20:00:33 2022
TYPE : TOUR
DIMENSION : 100
TOUR_SECTION
1
55
100
61
26
54
29
31
73
69
58
71
67
74
44
97
53
42
24
5
8
35
66
10
33
88
34
49
51
79
52
70
84
27
68
63
78
60
75
81
92
3
43
6
98
65
32
37
72
96
91
76
93
85
2
30
4
87
13
39
20
50
41
40
38
16
21
18
36
89
23
22
77
99
86
56
15
90
7
59
25
45
64
11
17
14
95
46
48
94
9
19
62
80
47
12
82
28
57
83
-1
EOF
